844.46 0
0 33 81 51 9 35 71 65 66 20 30 70 69 27 0
0 88 62 11 19 49 64 63 90 32 10 31 0
0 1 50 76 77 3 79 78 34 29 24 68 80 12 28 0
0 75 56 23 67 39 25 55 4 54 26 0
0 18 83 60 5 84 17 45 8 46 36 47 48 82 7 52 0
0 87 42 43 15 57 2 41 22 74 72 73 21 40 58 53 0
0 94 95 59 98 85 93 99 96 6 89 0
0 61 16 86 38 14 44 91 100 37 92 97 13 0